2
1000 2
87
17 1 1
20 1 1
21 1 1
22 1 1
25 1 1
26 1 1
30 1 1
38 1 1
40 1 1
41 1 1
42 1 1
44 1 2
49 1 1
61 1 1
64 1 2
65 1 1
66 1 1
67 1 1
68 1 1
69 1 2
71 1 1
74 1 1
77 1 2
78 1 1
79 1 1
81 1 1
84 1 1
85 1 1
90 1 1
91 1 1
96 1 1
98 1 2
106 1 1
107 1 1
110 1 1
116 1 1
117 1 1
119 1 1
120 1 1
122 1 1
123 1 2
124 1 1
130 1 1
136 1 1
142 1 1
143 1 1
147 1 1
148 1 1
158 1 1
161 1 1
163 1 1
166 1 1
169 1 1
171 1 1
172 1 1
185 1 1
186 1 1
188 1 2
193 1 1
199 1 1
200 1 1
202 1 1
208 1 1
210 1 1
211 1 1
215 1 1
220 1 1
222 1 1
227 1 3
233 1 1
235 1 1
236 1 1
237 1 2
238 1 2
239 1 2
240 1 2
243 1 1
244 1 1
248 1 1
249 1 1
250 1 1
256 1 1
257 1 1
262 1 1
263 1 1
265 1 1
266 1 1
